(set-logic QF_FP)
(set-info :source |Random FP created by PyMPF|)
(set-info :category random)
(set-info :status unsat)
(declare-const x Float32)
(assert (= x ((_ to_fp 8 24) #x0043327D)))
(declare-const y Float32)
(assert (= y ((_ to_fp 8 24) #x800D9666)))
(declare-const z Float32)
(assert (= z (fp #b0 #b00010101 #b11100011110100001011011)))
(declare-const result Float32)
(assert (= result (fp.fma RNA x y z)))
(assert (not (= result ((_ to_fp 8 24) #x0AF1E85B))))
(check-sat)
(exit)
